lps/t_sol_ini_ID000M003J004_ZintFalse_minla_fav_ub29.lp
\ This file has been generated by DOcplex
\ ENCODING=ISO-8859-1
\Problem name: minla_fav

Minimize
 obj: cmax
Subject To
 c1: x_1_0 - x_0_0 >= 1
 c2: x_2_0 - x_1_0 >= 3
 c3: x_0_1 - x_1_1 >= 8
 c4: x_2_1 - x_0_1 >= 5
 c5: x_2_2 - x_0_2 >= 5
 c6: x_1_2 - x_2_2 >= 4
 c7: x_0_3 - x_2_3 >= 4
 c8: x_1_3 - x_0_3 >= 10
 c9: x_0_0 - x_0_1 + 66 z_0_0_1 >= 5
 c10: x_0_1 - x_0_0 - 66 z_0_0_1 >= -65
 c11: x_0_0 - x_0_2 + 66 z_0_0_2 >= 5
 c12: x_0_2 - x_0_0 - 66 z_0_0_2 >= -65
 c13: x_0_0 - x_0_3 + 66 z_0_0_3 >= 10
 c14: x_0_3 - x_0_0 - 66 z_0_0_3 >= -65
 c15: x_0_1 - x_0_2 + 66 z_0_1_2 >= 5
 c16: x_0_2 - x_0_1 - 66 z_0_1_2 >= -61
 c17: x_0_1 - x_0_3 + 66 z_0_1_3 >= 10
 c18: x_0_3 - x_0_1 - 66 z_0_1_3 >= -61
 c19: x_0_2 - x_0_3 + 66 z_0_2_3 >= 10
 c20: x_0_3 - x_0_2 - 66 z_0_2_3 >= -61
 c21: x_1_0 - x_1_1 + 66 z_1_0_1 >= 8
 c22: x_1_1 - x_1_0 - 66 z_1_0_1 >= -63
 c23: x_1_0 - x_1_2 + 66 z_1_0_2 >= 8
 c24: x_1_2 - x_1_0 - 66 z_1_0_2 >= -63
 c25: x_1_0 - x_1_3 + 66 z_1_0_3 >= 6
 c26: x_1_3 - x_1_0 - 66 z_1_0_3 >= -63
 c27: x_1_1 - x_1_2 + 66 z_1_1_2 >= 8
 c28: x_1_2 - x_1_1 - 66 z_1_1_2 >= -58
 c29: x_1_1 - x_1_3 + 66 z_1_1_3 >= 6
 c30: x_1_3 - x_1_1 - 66 z_1_1_3 >= -58
 c31: x_1_2 - x_1_3 + 66 z_1_2_3 >= 6
 c32: x_1_3 - x_1_2 - 66 z_1_2_3 >= -58
 c33: x_2_0 - x_2_1 + 66 z_2_0_1 >= 10
 c34: x_2_1 - x_2_0 - 66 z_2_0_1 >= -64
 c35: x_2_0 - x_2_2 + 66 z_2_0_2 >= 4
 c36: x_2_2 - x_2_0 - 66 z_2_0_2 >= -64
 c37: x_2_0 - x_2_3 + 66 z_2_0_3 >= 4
 c38: x_2_3 - x_2_0 - 66 z_2_0_3 >= -64
 c39: x_2_1 - x_2_2 + 66 z_2_1_2 >= 4
 c40: x_2_2 - x_2_1 - 66 z_2_1_2 >= -56
 c41: x_2_1 - x_2_3 + 66 z_2_1_3 >= 4
 c42: x_2_3 - x_2_1 - 66 z_2_1_3 >= -56
 c43: x_2_2 - x_2_3 + 66 z_2_2_3 >= 4
 c44: x_2_3 - x_2_2 - 66 z_2_2_3 >= -62
 c45: x_0_0 + 5 z_0_0_1 + 5 z_0_0_2 + 10 z_0_0_3 >= 20
 c46: x_0_1 - z_0_0_1 + 5 z_0_1_2 + 10 z_0_1_3 >= 15
 c47: x_0_2 - z_0_0_2 - 5 z_0_1_2 + 10 z_0_2_3 >= 10
 c48: x_0_3 - z_0_0_3 - 5 z_0_1_3 - 5 z_0_2_3 >= 0
 c49: x_1_0 + 8 z_1_0_1 + 8 z_1_0_2 + 6 z_1_0_3 >= 22
 c50: x_1_1 - 3 z_1_0_1 + 8 z_1_1_2 + 6 z_1_1_3 >= 14
 c51: x_1_2 - 3 z_1_0_2 - 8 z_1_1_2 + 6 z_1_2_3 >= 6
 c52: x_1_3 - 3 z_1_0_3 - 8 z_1_1_3 - 8 z_1_2_3 >= 0
 c53: x_2_0 + 10 z_2_0_1 + 4 z_2_0_2 + 4 z_2_0_3 >= 18
 c54: x_2_1 - 2 z_2_0_1 + 4 z_2_1_2 + 4 z_2_1_3 >= 8
 c55: x_2_2 - 2 z_2_0_2 - 10 z_2_1_2 + 4 z_2_2_3 >= 4
 c56: x_2_3 - 2 z_2_0_3 - 10 z_2_1_3 - 4 z_2_2_3 >= 0
 c57: x_0_1 - z_0_0_1 >= 0
 c58: x_0_0 + 13 z_0_0_1 >= 13
 c59: x_0_2 - z_0_0_2 >= 0
 c60: x_0_0 + 5 z_0_0_2 >= 5
 c61: x_0_2 - 13 z_0_1_2 >= 0
 c62: x_0_1 + 5 z_0_1_2 >= 5
 c63: x_0_3 - z_0_0_3 >= 0
 c64: x_0_0 + 14 z_0_0_3 >= 14
 c65: x_0_3 - 13 z_0_1_3 >= 0
 c66: x_0_1 + 14 z_0_1_3 >= 14
 c67: x_0_3 - 5 z_0_2_3 >= 0
 c68: x_0_2 + 14 z_0_2_3 >= 14
 c69: x_1_1 - 4 z_1_0_1 >= 0
 c70: x_1_0 + 8 z_1_0_1 >= 8
 c71: x_1_2 - 4 z_1_0_2 >= 0
 c72: x_1_0 + 17 z_1_0_2 >= 17
 c73: x_1_2 - 8 z_1_1_2 >= 0
 c74: x_1_1 + 17 z_1_1_2 >= 17
 c75: x_1_3 - 4 z_1_0_3 >= 0
 c76: x_1_0 + 20 z_1_0_3 >= 20
 c77: x_1_3 - 8 z_1_1_3 >= 0
 c78: x_1_1 + 20 z_1_1_3 >= 20
 c79: x_1_3 - 17 z_1_2_3 >= 0
 c80: x_1_2 + 20 z_1_2_3 >= 20
 c81: x_2_1 - 6 z_2_0_1 >= 0
 c82: x_2_0 + 23 z_2_0_1 >= 23
 c83: x_2_2 - 6 z_2_0_2 >= 0
 c84: x_2_0 + 9 z_2_0_2 >= 9
 c85: x_2_2 - 23 z_2_1_2 >= 0
 c86: x_2_1 + 9 z_2_1_2 >= 9
 c87: x_2_3 - 6 z_2_0_3 >= 0
 c88: x_2_0 + 4 z_2_0_3 >= 4
 c89: x_2_3 - 23 z_2_1_3 >= 0
 c90: x_2_1 + 4 z_2_1_3 >= 4
 c91: x_2_3 - 9 z_2_2_3 >= 0
 c92: x_2_2 + 4 z_2_2_3 >= 4
 c93: cmax - x_0_0 - 15 z_0_0_1 >= 1
 c94: cmax - x_0_1 + 6 z_0_0_1 >= 11
 c95: cmax - x_0_0 - 17 z_0_0_2 >= 1
 c96: cmax - x_0_2 + 6 z_0_0_2 >= 11
 c97: cmax - x_0_0 - 16 z_0_0_3 >= 1
 c98: cmax - x_0_3 + 6 z_0_0_3 >= 16
 c99: cmax - x_0_1 - 17 z_0_1_2 >= 5
 c100: cmax - x_0_2 + 15 z_0_1_2 >= 20
 c101: cmax - x_0_1 - 16 z_0_1_3 >= 5
 c102: cmax - x_0_3 + 15 z_0_1_3 >= 25
 c103: cmax - x_0_2 - 16 z_0_2_3 >= 5
 c104: cmax - x_0_3 + 17 z_0_2_3 >= 27
 c105: cmax - x_1_0 - 23 z_1_0_1 >= 3
 c106: cmax - x_1_1 + 5 z_1_0_1 >= 13
 c107: cmax - x_1_0 - 8 z_1_0_2 >= 3
 c108: cmax - x_1_2 + 5 z_1_0_2 >= 13
 c109: cmax - x_1_0 - 6 z_1_0_3 >= 3
 c110: cmax - x_1_3 + 5 z_1_0_3 >= 11
 c111: cmax - x_1_1 - 8 z_1_1_2 >= 8
 c112: cmax - x_1_2 + 23 z_1_1_2 >= 31
 c113: cmax - x_1_1 - 6 z_1_1_3 >= 8
 c114: cmax - x_1_3 + 23 z_1_1_3 >= 29
 c115: cmax - x_1_2 - 6 z_1_2_3 >= 8
 c116: cmax - x_1_3 + 8 z_1_2_3 >= 14
 c117: cmax - x_2_0 - 10 z_2_0_1 >= 2
 c118: cmax - x_2_1 + 2 z_2_0_1 >= 12
 c119: cmax - x_2_0 - 12 z_2_0_2 >= 2
 c120: cmax - x_2_2 + 2 z_2_0_2 >= 6
 c121: cmax - x_2_0 - 20 z_2_0_3 >= 2
 c122: cmax - x_2_3 + 2 z_2_0_3 >= 6
 c123: cmax - x_2_1 - 12 z_2_1_2 >= 10
 c124: cmax - x_2_2 + 10 z_2_1_2 >= 14
 c125: cmax - x_2_1 - 20 z_2_1_3 >= 10
 c126: cmax - x_2_3 + 10 z_2_1_3 >= 14
 c127: cmax - x_2_2 - 20 z_2_2_3 >= 4
 c128: cmax - x_2_3 + 12 z_2_2_3 >= 16
 c129: cmax - x_0_0 >= 6
 c130: cmax - x_0_1 >= 15
 c131: cmax - x_0_2 >= 17
 c132: cmax - x_0_3 >= 16
 c133: cmax - x_1_0 >= 5
 c134: cmax - x_1_1 >= 23
 c135: cmax - x_1_2 >= 8
 c136: cmax - x_1_3 >= 6
 c137: cmax - x_2_0 >= 2
 c138: cmax - x_2_1 >= 10
 c139: cmax - x_2_2 >= 12
 c140: cmax - x_2_3 >= 20

Bounds
       z_0_0_1 <= 1
       z_0_0_2 <= 1
       z_0_0_3 <= 1
       z_0_1_2 <= 1
       z_0_1_3 <= 1
       z_0_2_3 <= 1
       z_1_0_1 <= 1
       z_1_0_2 <= 1
       z_1_0_3 <= 1
       z_1_1_2 <= 1
       z_1_1_3 <= 1
       z_1_2_3 <= 1
       z_2_0_1 <= 1
       z_2_0_2 <= 1
       z_2_0_3 <= 1
       z_2_1_2 <= 1
       z_2_1_3 <= 1
       z_2_2_3 <= 1
 23 <= cmax <= 29
End
