logs/t_sol_ini_ID000M003J004_ZintFalse_minla_fav_ub29.txt
CPXPARAM_TimeLimit                               7200
CPXPARAM_Read_DataCheck                          1
Tried aggregator 1 time.
LP Presolve eliminated 11 rows and 0 columns.
Reduced LP has 129 rows, 31 columns, and 350 nonzeros.
Presolve time = 0.00 sec. (0.06 ticks)

Iteration log . . .
Iteration:     1   Dual objective     =            23.000000
